NAME : mEgtspf.pid3388.gtsp.161061453.tour
COMMENT : Length = 161061453
COMMENT : Found by LKH [Keld Helsgaun] Wed Mar 19 14:55:29 2025
TYPE : TOUR
DIMENSION : 90
TOUR_SECTION
1
2
84
85
86
83
36
37
38
35
4
10
80
81
82
79
5
14
11
12
13
64
65
66
63
16
17
18
15
68
69
70
67
3
71
72
73
74
6
56
57
58
55
9
78
75
76
77
54
51
52
53
21
22
19
20
7
89
90
87
88
45
46
43
44
27
28
29
30
50
47
48
49
8
26
23
24
25
42
39
40
41
31
32
33
34
59
60
61
62
-1
EOF
